[VALIDATOR STDOUT]
Checking plan: /home/jfan5/Safety-gen/runs/benchmark/optic/grippers_20260201_172244/grippers/optic_results/grippers-n3-r30-o28-s28001.plan
Plan executed successfully - checking goal
Plan valid
Final value: 117 

Successful plans:
Value: 117
 /home/jfan5/Safety-gen/runs/benchmark/optic/grippers_20260201_172244/grippers/optic_results/grippers-n3-r30-o28-s28001.plan 117
